S = 5;
start = [|0,0,0,0,15,0,0,19,0,0,0,0,0,22,0,0,0,0,0,0,5,0,0,0,3|
4,25,14,9,0,0,0,0,0,0,0,0,0,0,0,0,3,0,0,21,0,0,0,0,0|
0,0,0,16,0,0,3,0,0,1,0,0,0,23,0,0,0,0,0,0,0,0,0,0,0|
0,0,0,0,0,0,0,21,24,0,4,0,0,3,0,0,0,0,0,0,0,0,0,0,13|
0,0,0,0,0,0,0,10,0,0,0,0,21,0,0,0,0,0,0,0,0,0,0,0,0|
2,0,0,0,0,0,0,18,0,0,0,5,23,0,0,0,0,0,0,0,0,0,17,0,0|
0,0,0,0,0,0,0,0,0,0,0,0,0,0,0,0,0,0,0,0,0,0,0,0,0|
0,0,0,0,12,0,0,0,0,0,0,0,0,0,0,0,0,0,0,0,0,0,0,0,0|
0,0,0,0,0,0,0,0,0,0,0,0,0,0,0,0,0,0,0,0,0,0,0,0,0|
0,0,0,0,0,9,6,0,0,0,0,0,0,0,8,3,15,0,0,0,0,0,0,0,14|
0,0,0,13,0,0,0,0,12,0,1,0,0,0,0,20,0,2,0,10,3,0,0,0,0|
0,0,0,0,0,14,0,0,0,0,0,0,0,0,25,0,0,0,0,0,0,0,0,0,0|
0,0,0,0,0,0,0,0,0,0,0,17,0,0,0,0,0,0,12,0,0,0,0,0,0|
14,23,0,0,0,0,0,0,4,0,0,3,0,0,2,0,0,21,0,22,0,13,0,0,0|
0,0,8,0,0,0,0,0,21,0,0,0,0,0,0,0,0,0,0,0,14,0,0,0,0|
0,0,0,0,0,0,15,3,0,0,0,8,0,0,13,0,0,0,0,0,0,0,0,0,0|
0,0,0,0,11,24,0,0,0,0,0,0,0,0,0,0,0,0,4,0,0,21,0,0,0|
0,0,0,0,9,6,0,0,0,0,0,0,25,0,0,0,0,0,0,0,0,0,24,0,0|
0,0,0,0,0,0,0,17,0,0,21,0,0,0,0,0,0,0,0,0,0,0,0,0,0|
0,0,0,0,25,0,0,0,0,0,22,0,0,2,0,8,0,0,0,18,15,0,0,0,0|
0,0,0,0,24,12,0,0,0,0,0,0,0,0,0,0,0,0,0,0,0,0,0,25,0|
0,9,0,0,0,0,0,0,0,4,0,0,0,0,0,0,0,0,0,8,0,3,0,0,0|
0,0,0,0,0,0,0,0,0,3,23,0,0,0,0,0,0,0,9,0,0,0,0,0,0|
0,0,20,0,0,0,0,0,9,0,0,0,0,0,0,0,22,0,0,0,0,0,0,0,0|
0,0,0,0,0,0,0,0,0,0,0,1,0,0,0,0,0,0,0,0,0,0,0,0,0|];